%chk=C:\Users\tkmeldrum\Documents\MDworking\C14H30.chk
# opt b3lyp/6-31g geom=connectivity

Title Card Required

0 1
 C                 -9.59119623   -3.49081984    0.00014616
 H                 -9.23613497   -4.50019087    0.00140370
 H                 -9.23293275   -2.98779373   -0.87364558
 H                -10.66119442   -3.48911856   -0.00082911
 C                 -9.07785308   -2.76451027    1.25734673
 H                 -9.43291429   -1.75513919    1.25608924
 H                 -9.43611658   -3.26753635    2.13113847
 C                 -7.53785562   -2.76695894    1.25875032
 H                 -7.17959211   -2.26393274    0.38495862
 H                 -7.18279443   -3.77633006    1.26000768
 C                 -7.02451242   -2.04064950    2.51595096
 H                 -7.38277597   -2.54367565    3.38974266
 H                 -7.37957356   -1.03127837    2.51469354
 C                 -5.48451501   -2.04309823    2.51735459
 H                 -5.12625145   -1.54007213    1.64356293
 H                 -5.12945392   -3.05246932    2.51861204
 C                 -4.97117183   -1.31678876    3.77455515
 H                 -5.32943534   -1.81981493    4.64834683
 H                 -5.32623304   -0.30741771    3.77329769
 C                 -3.43117440   -1.31923726    3.77595876
 H                 -3.07291095   -0.81621103    2.90216705
 H                 -3.07611314   -2.32860827    3.77721613
 C                 -2.91783124   -0.59292774    5.03315934
 H                 -3.27609455   -1.09595396    5.90695112
 H                 -3.27289263    0.41644329    5.03190192
 C                 -1.37783382   -0.59537611    5.03456277
 H                 -1.01957050   -0.09234977    4.16077105
 H                 -1.02277242   -1.60474714    5.03582005
 C                 -0.86449063    0.13093339    6.29176336
 H                 -1.22275390   -0.37209286    7.16555512
 H                 -1.21955209    1.14030440    6.29050601
 C                  0.67550681    0.12848511    6.29316674
 H                  1.03377004    0.63151141    5.41937498
 H                  1.03056823   -0.88088589    6.29442405
 C                  1.18885000    0.85479464    7.55036724
 H                  0.83058700    0.35176820    8.42415898
 H                  0.83378836    1.86416557    7.54910998
 C                  2.72884739    0.85234675    7.55177043
 H                  3.08711042    1.35537310    6.67797866
 H                  3.08390910   -0.15702417    7.55302771
 C                  3.24219054    1.57865648    8.80897091
 H                  2.88392760    1.07563007    9.68276269
 H                  4.31218872    1.57695575    8.80994576
 H                  2.88712877    2.58802739    8.80771369

 1 2 1.0 3 1.0 4 1.0 5 1.0
 2
 3
 4
 5 6 1.0 7 1.0 8 1.0
 6
 7
 8 9 1.0 10 1.0 11 1.0
 9
 10
 11 12 1.0 13 1.0 14 1.0
 12
 13
 14 15 1.0 16 1.0 17 1.0
 15
 16
 17 18 1.0 19 1.0 20 1.0
 18
 19
 20 21 1.0 22 1.0 23 1.0
 21
 22
 23 24 1.0 25 1.0 26 1.0
 24
 25
 26 27 1.0 28 1.0 29 1.0
 27
 28
 29 30 1.0 31 1.0 32 1.0
 30
 31
 32 33 1.0 34 1.0 35 1.0
 33
 34
 35 36 1.0 37 1.0 38 1.0
 36
 37
 38 39 1.0 40 1.0 41 1.0
 39
 40
 41 42 1.0 43 1.0 44 1.0
 42
 43
 44

