%chk=C:\Users\tkmeldrum\Documents\MDworking\C5H12.chk
# opt b3lyp/6-31g geom=connectivity

Title Card Required

0 1
 C                 -6.13207598    0.15708976    0.00008241
 H                 -5.77688888   -0.85223730    0.00107999
 H                 -5.77393778    0.66036351   -0.87361809
 H                 -7.20207445    0.15865792   -0.00081582
 C                 -5.61873329    0.88317121    1.25741491
 H                 -5.97392039    1.89249828    1.25641733
 H                 -5.97687149    0.37989746    2.13111541
 C                 -4.07873549    0.88091424    1.25870769
 H                 -3.72059728    1.38418799    0.38500720
 H                 -3.72354838   -0.12841282    1.25970527
 C                 -3.56539279    1.60699569    2.51604019
 H                 -3.92353100    1.10372194    3.38974069
 H                 -3.92057990    2.61632276    2.51504261
 C                 -2.02539499    1.60473872    2.51733298
 H                 -1.66725679    2.10801247    1.64363248
 H                 -1.66872182    2.10922388    3.39093413
 H                 -1.67020789    0.59541166    2.51833056

 1 2 1.0 3 1.0 4 1.0 5 1.0
 2
 3
 4
 5 6 1.0 7 1.0 8 1.0
 6
 7
 8 9 1.0 10 1.0 11 1.0
 9
 10
 11 12 1.0 13 1.0 14 1.0
 12
 13
 14 15 1.0 16 1.0 17 1.0
 15
 16
 17

