%chk=C:\Users\tkmeldrum\Documents\MDworking\C20H42.chk
# opt b3lyp/6-31g geom=connectivity

Title Card Required

0 1
 C                 -9.55974949   -4.15096452    0.00001120
 H                 -9.20324911   -5.15982891    0.00012668
 H                 -9.20292296   -3.64669331   -0.87365093
 H                -10.62974947   -4.15078820   -0.00008285
 C                 -9.04640703   -3.42498130    1.25740056
 H                 -9.40290721   -2.41611677    1.25728490
 H                 -9.40323385   -3.92925228    2.13106263
 C                 -7.50640708   -3.42523552    1.25753628
 H                 -7.14958015   -2.92096510    0.38387393
 H                 -7.14990703   -4.43410007    1.25765259
 C                 -6.99306460   -2.69925136    2.51492510
 H                 -7.34989168   -3.20352144    3.38858753
 H                 -7.34956447   -1.69038669    2.51480850
 C                 -5.45306467   -2.69950603    2.51506093
 H                 -5.09623755   -2.19523678    1.64139794
 H                 -5.09656485   -3.70837065    2.51517851
 C                 -4.93972226   -1.97352043    3.77244887
 H                 -5.29654964   -2.47778922    4.64611196
 H                 -5.29622188   -0.96465571    3.77233078
 C                 -3.39972231   -1.97377559    3.77258506
 H                 -3.04289479   -1.46950780    2.89892142
 H                 -3.04322282   -2.98264033    3.77270429
 C                 -2.88637983   -1.24778814    5.02997193
 H                 -3.24320754   -1.75205547    5.90363577
 H                 -3.24287915   -0.23892330    5.02985225
 C                 -1.34637986   -1.24804374    5.03010833
 H                 -0.98955196   -0.74377732    4.15644407
 H                 -0.98988079   -2.25690863    5.03022904
 C                 -0.83303736   -0.52205479    6.28749435
 H                 -1.18986589   -1.02632048    7.16115878
 H                 -1.18953580    0.48681033    6.28737292
 C                  0.70696264   -0.52231181    6.28763161
 H                  1.06379141   -0.01804698    5.41396677
 H                  1.06346084   -1.53117700    6.28775400
 C                  1.22030508    0.20367854    7.54501681
 H                  0.86347545   -0.30058550    8.41868173
 H                  0.86380771    1.21254406    7.54489372
 C                  2.76030505    0.20341994    7.54515491
 H                  3.11713489    0.70768341    6.67148974
 H                  3.11680214   -0.80544564    7.54527864
 C                  3.27364752    0.92941105    8.80253967
 H                  2.91681671    0.42514841    9.67620490
 H                  2.91715134    1.93827700    8.80241520
 C                  4.81364749    0.92915055    8.80267893
 H                  5.17047860    1.43341253    7.92901336
 H                  5.17014335   -0.07971544    8.80280413
 C                  5.32698993    1.65514258   10.06006318
 H                  4.97015782    1.15088144   10.93372873
 H                  4.97049503    2.66400899   10.05993723
 C                  6.86698989    1.65488019   10.06020352
 H                  7.22382216    2.15914105    9.18653784
 H                  7.22348457    0.64601372   10.06032972
 C                  7.38033234    2.38087245   11.31758761
 H                  7.02349989    1.87661167   12.19125327
 H                  7.02383784    3.38973896   11.31746132
 C                  8.92033231    2.38060964   11.31772821
 H                  9.27716482    2.88487066   10.44406272
 H                  9.27682681    1.37174311   11.31785423
 C                  9.43367476    3.10660146   12.57511259
 H                  9.07684228    2.60234037   13.44877809
 H                 10.50367475    3.10641883   12.57521032
 H                  9.07718026    4.11546800   12.57498664

 1 2 1.0 3 1.0 4 1.0 5 1.0
 2
 3
 4
 5 6 1.0 7 1.0 8 1.0
 6
 7
 8 9 1.0 10 1.0 11 1.0
 9
 10
 11 12 1.0 13 1.0 14 1.0
 12
 13
 14 15 1.0 16 1.0 17 1.0
 15
 16
 17 18 1.0 19 1.0 20 1.0
 18
 19
 20 21 1.0 22 1.0 23 1.0
 21
 22
 23 24 1.0 25 1.0 26 1.0
 24
 25
 26 27 1.0 28 1.0 29 1.0
 27
 28
 29 30 1.0 31 1.0 32 1.0
 30
 31
 32 33 1.0 34 1.0 35 1.0
 33
 34
 35 36 1.0 37 1.0 38 1.0
 36
 37
 38 39 1.0 40 1.0 41 1.0
 39
 40
 41 42 1.0 43 1.0 44 1.0
 42
 43
 44 45 1.0 46 1.0 47 1.0
 45
 46
 47 48 1.0 49 1.0 50 1.0
 48
 49
 50 51 1.0 52 1.0 53 1.0
 51
 52
 53 54 1.0 55 1.0 56 1.0
 54
 55
 56 57 1.0 58 1.0 59 1.0
 57
 58
 59 60 1.0 61 1.0 62 1.0
 60
 61
 62

