%chk=C:\Users\tkmeldrum\Documents\MDworking\C6H14.chk
# opt b3lyp/6-31g geom=connectivity

Title Card Required

0 1
 C                 -6.94968577   -0.18869827    0.00001067
 H                 -6.59317894   -1.19756043    0.00011663
 H                 -6.59286560    0.31558231   -0.87364856
 H                 -8.01968576   -0.18852876   -0.00007948
 C                 -6.43634337    0.53727798    1.25740403
 H                 -6.79285021    1.54614015    1.25729808
 H                 -6.79316354    0.03299740    2.13106327
 C                 -4.89634339    0.53703401    1.25753379
 H                 -4.53952322    1.04131460    0.38387455
 H                 -4.53983656   -0.47182815    1.25763974
 C                 -4.38300099    1.26301027    2.51492715
 H                 -4.73982116    0.75872968    3.38858638
 H                 -4.73950783    2.27187243    2.51482119
 C                 -2.84300101    1.26276630    2.51505690
 H                 -2.48618084    1.76704688    1.64139767
 H                 -2.48649417    0.25390413    2.51516286
 C                 -2.32965861    1.98874255    3.77245026
 H                 -2.68647878    1.48446197    4.64610950
 H                 -1.25965862    1.98857304    3.77254042
 H                 -2.68616544    2.99760471    3.77234431

 1 2 1.0 3 1.0 4 1.0 5 1.0
 2
 3
 4
 5 6 1.0 7 1.0 8 1.0
 6
 7
 8 9 1.0 10 1.0 11 1.0
 9
 10
 11 12 1.0 13 1.0 14 1.0
 12
 13
 14 15 1.0 16 1.0 17 1.0
 15
 16
 17 18 1.0 19 1.0 20 1.0
 18
 19
 20

